c File: flat150_3_0.col
c
c SOURCE: Joseph Culberson (joe@cs.ualberta.ca)
c DESCRIPTION: Quasi-random coloring problem
c              generated with flatness = 0
c                             probability = 0.048
c                             known coloring = 3
c                             random seed = 1027
c              Creation Date:  Wed Feb 24 10:37:22 1999
c Maximum degree = 8 Minimum degree = 0
c COLOR VERIFICATION: Using the permuted order
c under simple greedy yields the specified
c coloring number
c Color = 3 specified partitions = 3
c p edge 150 360
c cnf created by edge2cnf
p cnf 450 1680
-1 -2 0
-1 -3 0
-2 -3 0
1 2 3 0
-4 -5 0
-4 -6 0
-5 -6 0
4 5 6 0
-7 -8 0
-7 -9 0
-8 -9 0
7 8 9 0
-10 -11 0
-10 -12 0
-11 -12 0
10 11 12 0
-13 -14 0
-13 -15 0
-14 -15 0
13 14 15 0
-16 -17 0
-16 -18 0
-17 -18 0
16 17 18 0
-19 -20 0
-19 -21 0
-20 -21 0
19 20 21 0
-22 -23 0
-22 -24 0
-23 -24 0
22 23 24 0
-25 -26 0
-25 -27 0
-26 -27 0
25 26 27 0
-28 -29 0
-28 -30 0
-29 -30 0
28 29 30 0
-31 -32 0
-31 -33 0
-32 -33 0
31 32 33 0
-34 -35 0
-34 -36 0
-35 -36 0
34 35 36 0
-37 -38 0
-37 -39 0
-38 -39 0
37 38 39 0
-40 -41 0
-40 -42 0
-41 -42 0
40 41 42 0
-43 -44 0
-43 -45 0
-44 -45 0
43 44 45 0
-46 -47 0
-46 -48 0
-47 -48 0
46 47 48 0
-49 -50 0
-49 -51 0
-50 -51 0
49 50 51 0
-52 -53 0
-52 -54 0
-53 -54 0
52 53 54 0
-55 -56 0
-55 -57 0
-56 -57 0
55 56 57 0
-58 -59 0
-58 -60 0
-59 -60 0
58 59 60 0
-61 -62 0
-61 -63 0
-62 -63 0
61 62 63 0
-64 -65 0
-64 -66 0
-65 -66 0
64 65 66 0
-67 -68 0
-67 -69 0
-68 -69 0
67 68 69 0
-70 -71 0
-70 -72 0
-71 -72 0
70 71 72 0
-73 -74 0
-73 -75 0
-74 -75 0
73 74 75 0
-76 -77 0
-76 -78 0
-77 -78 0
76 77 78 0
-79 -80 0
-79 -81 0
-80 -81 0
79 80 81 0
-82 -83 0
-82 -84 0
-83 -84 0
82 83 84 0
-85 -86 0
-85 -87 0
-86 -87 0
85 86 87 0
-88 -89 0
-88 -90 0
-89 -90 0
88 89 90 0
-91 -92 0
-91 -93 0
-92 -93 0
91 92 93 0
-94 -95 0
-94 -96 0
-95 -96 0
94 95 96 0
-97 -98 0
-97 -99 0
-98 -99 0
97 98 99 0
-100 -101 0
-100 -102 0
-101 -102 0
100 101 102 0
-103 -104 0
-103 -105 0
-104 -105 0
103 104 105 0
-106 -107 0
-106 -108 0
-107 -108 0
106 107 108 0
-109 -110 0
-109 -111 0
-110 -111 0
109 110 111 0
-112 -113 0
-112 -114 0
-113 -114 0
112 113 114 0
-115 -116 0
-115 -117 0
-116 -117 0
115 116 117 0
-118 -119 0
-118 -120 0
-119 -120 0
118 119 120 0
-121 -122 0
-121 -123 0
-122 -123 0
121 122 123 0
-124 -125 0
-124 -126 0
-125 -126 0
124 125 126 0
-127 -128 0
-127 -129 0
-128 -129 0
127 128 129 0
-130 -131 0
-130 -132 0
-131 -132 0
130 131 132 0
-133 -134 0
-133 -135 0
-134 -135 0
133 134 135 0
-136 -137 0
-136 -138 0
-137 -138 0
136 137 138 0
-139 -140 0
-139 -141 0
-140 -141 0
139 140 141 0
-142 -143 0
-142 -144 0
-143 -144 0
142 143 144 0
-145 -146 0
-145 -147 0
-146 -147 0
145 146 147 0
-148 -149 0
-148 -150 0
-149 -150 0
148 149 150 0
-151 -152 0
-151 -153 0
-152 -153 0
151 152 153 0
-154 -155 0
-154 -156 0
-155 -156 0
154 155 156 0
-157 -158 0
-157 -159 0
-158 -159 0
157 158 159 0
-160 -161 0
-160 -162 0
-161 -162 0
160 161 162 0
-163 -164 0
-163 -165 0
-164 -165 0
163 164 165 0
-166 -167 0
-166 -168 0
-167 -168 0
166 167 168 0
-169 -170 0
-169 -171 0
-170 -171 0
169 170 171 0
-172 -173 0
-172 -174 0
-173 -174 0
172 173 174 0
-175 -176 0
-175 -177 0
-176 -177 0
175 176 177 0
-178 -179 0
-178 -180 0
-179 -180 0
178 179 180 0
-181 -182 0
-181 -183 0
-182 -183 0
181 182 183 0
-184 -185 0
-184 -186 0
-185 -186 0
184 185 186 0
-187 -188 0
-187 -189 0
-188 -189 0
187 188 189 0
-190 -191 0
-190 -192 0
-191 -192 0
190 191 192 0
-193 -194 0
-193 -195 0
-194 -195 0
193 194 195 0
-196 -197 0
-196 -198 0
-197 -198 0
196 197 198 0
-199 -200 0
-199 -201 0
-200 -201 0
199 200 201 0
-202 -203 0
-202 -204 0
-203 -204 0
202 203 204 0
-205 -206 0
-205 -207 0
-206 -207 0
205 206 207 0
-208 -209 0
-208 -210 0
-209 -210 0
208 209 210 0
-211 -212 0
-211 -213 0
-212 -213 0
211 212 213 0
-214 -215 0
-214 -216 0
-215 -216 0
214 215 216 0
-217 -218 0
-217 -219 0
-218 -219 0
217 218 219 0
-220 -221 0
-220 -222 0
-221 -222 0
220 221 222 0
-223 -224 0
-223 -225 0
-224 -225 0
223 224 225 0
-226 -227 0
-226 -228 0
-227 -228 0
226 227 228 0
-229 -230 0
-229 -231 0
-230 -231 0
229 230 231 0
-232 -233 0
-232 -234 0
-233 -234 0
232 233 234 0
-235 -236 0
-235 -237 0
-236 -237 0
235 236 237 0
-238 -239 0
-238 -240 0
-239 -240 0
238 239 240 0
-241 -242 0
-241 -243 0
-242 -243 0
241 242 243 0
-244 -245 0
-244 -246 0
-245 -246 0
244 245 246 0
-247 -248 0
-247 -249 0
-248 -249 0
247 248 249 0
-250 -251 0
-250 -252 0
-251 -252 0
250 251 252 0
-253 -254 0
-253 -255 0
-254 -255 0
253 254 255 0
-256 -257 0
-256 -258 0
-257 -258 0
256 257 258 0
-259 -260 0
-259 -261 0
-260 -261 0
259 260 261 0
-262 -263 0
-262 -264 0
-263 -264 0
262 263 264 0
-265 -266 0
-265 -267 0
-266 -267 0
265 266 267 0
-268 -269 0
-268 -270 0
-269 -270 0
268 269 270 0
-271 -272 0
-271 -273 0
-272 -273 0
271 272 273 0
-274 -275 0
-274 -276 0
-275 -276 0
274 275 276 0
-277 -278 0
-277 -279 0
-278 -279 0
277 278 279 0
-280 -281 0
-280 -282 0
-281 -282 0
280 281 282 0
-283 -284 0
-283 -285 0
-284 -285 0
283 284 285 0
-286 -287 0
-286 -288 0
-287 -288 0
286 287 288 0
-289 -290 0
-289 -291 0
-290 -291 0
289 290 291 0
-292 -293 0
-292 -294 0
-293 -294 0
292 293 294 0
-295 -296 0
-295 -297 0
-296 -297 0
295 296 297 0
-298 -299 0
-298 -300 0
-299 -300 0
298 299 300 0
-301 -302 0
-301 -303 0
-302 -303 0
301 302 303 0
-304 -305 0
-304 -306 0
-305 -306 0
304 305 306 0
-307 -308 0
-307 -309 0
-308 -309 0
307 308 309 0
-310 -311 0
-310 -312 0
-311 -312 0
310 311 312 0
-313 -314 0
-313 -315 0
-314 -315 0
313 314 315 0
-316 -317 0
-316 -318 0
-317 -318 0
316 317 318 0
-319 -320 0
-319 -321 0
-320 -321 0
319 320 321 0
-322 -323 0
-322 -324 0
-323 -324 0
322 323 324 0
-325 -326 0
-325 -327 0
-326 -327 0
325 326 327 0
-328 -329 0
-328 -330 0
-329 -330 0
328 329 330 0
-331 -332 0
-331 -333 0
-332 -333 0
331 332 333 0
-334 -335 0
-334 -336 0
-335 -336 0
334 335 336 0
-337 -338 0
-337 -339 0
-338 -339 0
337 338 339 0
-340 -341 0
-340 -342 0
-341 -342 0
340 341 342 0
-343 -344 0
-343 -345 0
-344 -345 0
343 344 345 0
-346 -347 0
-346 -348 0
-347 -348 0
346 347 348 0
-349 -350 0
-349 -351 0
-350 -351 0
349 350 351 0
-352 -353 0
-352 -354 0
-353 -354 0
352 353 354 0
-355 -356 0
-355 -357 0
-356 -357 0
355 356 357 0
-358 -359 0
-358 -360 0
-359 -360 0
358 359 360 0
-361 -362 0
-361 -363 0
-362 -363 0
361 362 363 0
-364 -365 0
-364 -366 0
-365 -366 0
364 365 366 0
-367 -368 0
-367 -369 0
-368 -369 0
367 368 369 0
-370 -371 0
-370 -372 0
-371 -372 0
370 371 372 0
-373 -374 0
-373 -375 0
-374 -375 0
373 374 375 0
-376 -377 0
-376 -378 0
-377 -378 0
376 377 378 0
-379 -380 0
-379 -381 0
-380 -381 0
379 380 381 0
-382 -383 0
-382 -384 0
-383 -384 0
382 383 384 0
-385 -386 0
-385 -387 0
-386 -387 0
385 386 387 0
-388 -389 0
-388 -390 0
-389 -390 0
388 389 390 0
-391 -392 0
-391 -393 0
-392 -393 0
391 392 393 0
-394 -395 0
-394 -396 0
-395 -396 0
394 395 396 0
-397 -398 0
-397 -399 0
-398 -399 0
397 398 399 0
-400 -401 0
-400 -402 0
-401 -402 0
400 401 402 0
-403 -404 0
-403 -405 0
-404 -405 0
403 404 405 0
-406 -407 0
-406 -408 0
-407 -408 0
406 407 408 0
-409 -410 0
-409 -411 0
-410 -411 0
409 410 411 0
-412 -413 0
-412 -414 0
-413 -414 0
412 413 414 0
-415 -416 0
-415 -417 0
-416 -417 0
415 416 417 0
-418 -419 0
-418 -420 0
-419 -420 0
418 419 420 0
-421 -422 0
-421 -423 0
-422 -423 0
421 422 423 0
-424 -425 0
-424 -426 0
-425 -426 0
424 425 426 0
-427 -428 0
-427 -429 0
-428 -429 0
427 428 429 0
-430 -431 0
-430 -432 0
-431 -432 0
430 431 432 0
-433 -434 0
-433 -435 0
-434 -435 0
433 434 435 0
-436 -437 0
-436 -438 0
-437 -438 0
436 437 438 0
-439 -440 0
-439 -441 0
-440 -441 0
439 440 441 0
-442 -443 0
-442 -444 0
-443 -444 0
442 443 444 0
-445 -446 0
-445 -447 0
-446 -447 0
445 446 447 0
-448 -449 0
-448 -450 0
-449 -450 0
448 449 450 0
-190 -1 0
-191 -2 0
-192 -3 0
-283 -1 0
-284 -2 0
-285 -3 0
-382 -1 0
-383 -2 0
-384 -3 0
-442 -1 0
-443 -2 0
-444 -3 0
-19 -4 0
-20 -5 0
-21 -6 0
-25 -4 0
-26 -5 0
-27 -6 0
-238 -4 0
-239 -5 0
-240 -6 0
-253 -4 0
-254 -5 0
-255 -6 0
-361 -4 0
-362 -5 0
-363 -6 0
-406 -4 0
-407 -5 0
-408 -6 0
-448 -4 0
-449 -5 0
-450 -6 0
-163 -7 0
-164 -8 0
-165 -9 0
-205 -7 0
-206 -8 0
-207 -9 0
-241 -7 0
-242 -8 0
-243 -9 0
-250 -7 0
-251 -8 0
-252 -9 0
-325 -7 0
-326 -8 0
-327 -9 0
-346 -7 0
-347 -8 0
-348 -9 0
-97 -10 0
-98 -11 0
-99 -12 0
-211 -10 0
-212 -11 0
-213 -12 0
-241 -10 0
-242 -11 0
-243 -12 0
-304 -10 0
-305 -11 0
-306 -12 0
-376 -10 0
-377 -11 0
-378 -12 0
-391 -10 0
-392 -11 0
-393 -12 0
-433 -10 0
-434 -11 0
-435 -12 0
-19 -13 0
-20 -14 0
-21 -15 0
-31 -13 0
-32 -14 0
-33 -15 0
-88 -13 0
-89 -14 0
-90 -15 0
-226 -13 0
-227 -14 0
-228 -15 0
-400 -13 0
-401 -14 0
-402 -15 0
-418 -13 0
-419 -14 0
-420 -15 0
-184 -16 0
-185 -17 0
-186 -18 0
-205 -16 0
-206 -17 0
-207 -18 0
-268 -16 0
-269 -17 0
-270 -18 0
-433 -16 0
-434 -17 0
-435 -18 0
-190 -19 0
-191 -20 0
-192 -21 0
-34 -22 0
-35 -23 0
-36 -24 0
-142 -22 0
-143 -23 0
-144 -24 0
-172 -22 0
-173 -23 0
-174 -24 0
-181 -22 0
-182 -23 0
-183 -24 0
-223 -22 0
-224 -23 0
-225 -24 0
-274 -22 0
-275 -23 0
-276 -24 0
-76 -25 0
-77 -26 0
-78 -27 0
-124 -25 0
-125 -26 0
-126 -27 0
-145 -25 0
-146 -26 0
-147 -27 0
-223 -25 0
-224 -26 0
-225 -27 0
-262 -25 0
-263 -26 0
-264 -27 0
-307 -25 0
-308 -26 0
-309 -27 0
-199 -28 0
-200 -29 0
-201 -30 0
-175 -31 0
-176 -32 0
-177 -33 0
-178 -31 0
-179 -32 0
-180 -33 0
-190 -31 0
-191 -32 0
-192 -33 0
-385 -31 0
-386 -32 0
-387 -33 0
-40 -34 0
-41 -35 0
-42 -36 0
-52 -34 0
-53 -35 0
-54 -36 0
-136 -34 0
-137 -35 0
-138 -36 0
-310 -34 0
-311 -35 0
-312 -36 0
-430 -34 0
-431 -35 0
-432 -36 0
-448 -34 0
-449 -35 0
-450 -36 0
-82 -37 0
-83 -38 0
-84 -39 0
-178 -37 0
-179 -38 0
-180 -39 0
-283 -37 0
-284 -38 0
-285 -39 0
-310 -37 0
-311 -38 0
-312 -39 0
-115 -40 0
-116 -41 0
-117 -42 0
-340 -40 0
-341 -41 0
-342 -42 0
-445 -40 0
-446 -41 0
-447 -42 0
-109 -43 0
-110 -44 0
-111 -45 0
-163 -43 0
-164 -44 0
-165 -45 0
-181 -43 0
-182 -44 0
-183 -45 0
-232 -43 0
-233 -44 0
-234 -45 0
-364 -43 0
-365 -44 0
-366 -45 0
-397 -43 0
-398 -44 0
-399 -45 0
-442 -43 0
-443 -44 0
-444 -45 0
-139 -46 0
-140 -47 0
-141 -48 0
-142 -49 0
-143 -50 0
-144 -51 0
-262 -49 0
-263 -50 0
-264 -51 0
-397 -49 0
-398 -50 0
-399 -51 0
-424 -49 0
-425 -50 0
-426 -51 0
-70 -52 0
-71 -53 0
-72 -54 0
-103 -52 0
-104 -53 0
-105 -54 0
-232 -52 0
-233 -53 0
-234 -54 0
-280 -52 0
-281 -53 0
-282 -54 0
-412 -52 0
-413 -53 0
-414 -54 0
-160 -55 0
-161 -56 0
-162 -57 0
-313 -55 0
-314 -56 0
-315 -57 0
-331 -55 0
-332 -56 0
-333 -57 0
-397 -55 0
-398 -56 0
-399 -57 0
-193 -58 0
-194 -59 0
-195 -60 0
-247 -58 0
-248 -59 0
-249 -60 0
-151 -61 0
-152 -62 0
-153 -63 0
-178 -61 0
-179 -62 0
-180 -63 0
-232 -61 0
-233 -62 0
-234 -63 0
-388 -61 0
-389 -62 0
-390 -63 0
-433 -61 0
-434 -62 0
-435 -63 0
-349 -64 0
-350 -65 0
-351 -66 0
-421 -64 0
-422 -65 0
-423 -66 0
-142 -67 0
-143 -68 0
-144 -69 0
-379 -67 0
-380 -68 0
-381 -69 0
-427 -67 0
-428 -68 0
-429 -69 0
-256 -70 0
-257 -71 0
-258 -72 0
-301 -70 0
-302 -71 0
-303 -72 0
-400 -70 0
-401 -71 0
-402 -72 0
-187 -73 0
-188 -74 0
-189 -75 0
-361 -73 0
-362 -74 0
-363 -75 0
-412 -73 0
-413 -74 0
-414 -75 0
-208 -76 0
-209 -77 0
-210 -78 0
-334 -76 0
-335 -77 0
-336 -78 0
-379 -76 0
-380 -77 0
-381 -78 0
-118 -79 0
-119 -80 0
-120 -81 0
-199 -79 0
-200 -80 0
-201 -81 0
-421 -79 0
-422 -80 0
-423 -81 0
-376 -82 0
-377 -83 0
-378 -84 0
-439 -82 0
-440 -83 0
-441 -84 0
-136 -85 0
-137 -86 0
-138 -87 0
-211 -85 0
-212 -86 0
-213 -87 0
-244 -85 0
-245 -86 0
-246 -87 0
-304 -85 0
-305 -86 0
-306 -87 0
-421 -85 0
-422 -86 0
-423 -87 0
-298 -88 0
-299 -89 0
-300 -90 0
-373 -88 0
-374 -89 0
-375 -90 0
-199 -91 0
-200 -92 0
-201 -93 0
-316 -91 0
-317 -92 0
-318 -93 0
-328 -91 0
-329 -92 0
-330 -93 0
-352 -91 0
-353 -92 0
-354 -93 0
-448 -91 0
-449 -92 0
-450 -93 0
-109 -94 0
-110 -95 0
-111 -96 0
-241 -94 0
-242 -95 0
-243 -96 0
-385 -94 0
-386 -95 0
-387 -96 0
-445 -94 0
-446 -95 0
-447 -96 0
-100 -97 0
-101 -98 0
-102 -99 0
-181 -97 0
-182 -98 0
-183 -99 0
-217 -97 0
-218 -98 0
-219 -99 0
-238 -97 0
-239 -98 0
-240 -99 0
-175 -100 0
-176 -101 0
-177 -102 0
-244 -100 0
-245 -101 0
-246 -102 0
-316 -100 0
-317 -101 0
-318 -102 0
-334 -100 0
-335 -101 0
-336 -102 0
-364 -100 0
-365 -101 0
-366 -102 0
-430 -100 0
-431 -101 0
-432 -102 0
-223 -103 0
-224 -104 0
-225 -105 0
-235 -103 0
-236 -104 0
-237 -105 0
-280 -103 0
-281 -104 0
-282 -105 0
-283 -103 0
-284 -104 0
-285 -105 0
-409 -103 0
-410 -104 0
-411 -105 0
-430 -103 0
-431 -104 0
-432 -105 0
-226 -106 0
-227 -107 0
-228 -108 0
-280 -106 0
-281 -107 0
-282 -108 0
-436 -109 0
-437 -110 0
-438 -111 0
-160 -112 0
-161 -113 0
-162 -114 0
-211 -112 0
-212 -113 0
-213 -114 0
-310 -112 0
-311 -113 0
-312 -114 0
-343 -112 0
-344 -113 0
-345 -114 0
-358 -112 0
-359 -113 0
-360 -114 0
-367 -112 0
-368 -113 0
-369 -114 0
-418 -112 0
-419 -113 0
-420 -114 0
-130 -115 0
-131 -116 0
-132 -117 0
-157 -115 0
-158 -116 0
-159 -117 0
-409 -115 0
-410 -116 0
-411 -117 0
-160 -118 0
-161 -119 0
-162 -120 0
-250 -118 0
-251 -119 0
-252 -120 0
-346 -118 0
-347 -119 0
-348 -120 0
-406 -118 0
-407 -119 0
-408 -120 0
-445 -118 0
-446 -119 0
-447 -120 0
-181 -121 0
-182 -122 0
-183 -123 0
-211 -124 0
-212 -125 0
-213 -126 0
-397 -124 0
-398 -125 0
-399 -126 0
-145 -127 0
-146 -128 0
-147 -129 0
-148 -127 0
-149 -128 0
-150 -129 0
-196 -127 0
-197 -128 0
-198 -129 0
-259 -127 0
-260 -128 0
-261 -129 0
-358 -127 0
-359 -128 0
-360 -129 0
-391 -127 0
-392 -128 0
-393 -129 0
-328 -130 0
-329 -131 0
-330 -132 0
-397 -130 0
-398 -131 0
-399 -132 0
-421 -130 0
-422 -131 0
-423 -132 0
-277 -133 0
-278 -134 0
-279 -135 0
-292 -133 0
-293 -134 0
-294 -135 0
-397 -133 0
-398 -134 0
-399 -135 0
-409 -133 0
-410 -134 0
-411 -135 0
-178 -136 0
-179 -137 0
-180 -138 0
-334 -136 0
-335 -137 0
-336 -138 0
-217 -139 0
-218 -140 0
-219 -141 0
-253 -139 0
-254 -140 0
-255 -141 0
-178 -142 0
-179 -143 0
-180 -144 0
-331 -145 0
-332 -146 0
-333 -147 0
-397 -145 0
-398 -146 0
-399 -147 0
-409 -145 0
-410 -146 0
-411 -147 0
-250 -148 0
-251 -149 0
-252 -150 0
-346 -148 0
-347 -149 0
-348 -150 0
-352 -148 0
-353 -149 0
-354 -150 0
-379 -148 0
-380 -149 0
-381 -150 0
-385 -148 0
-386 -149 0
-387 -150 0
-418 -148 0
-419 -149 0
-420 -150 0
-445 -148 0
-446 -149 0
-447 -150 0
-154 -151 0
-155 -152 0
-156 -153 0
-247 -151 0
-248 -152 0
-249 -153 0
-376 -151 0
-377 -152 0
-378 -153 0
-433 -151 0
-434 -152 0
-435 -153 0
-169 -154 0
-170 -155 0
-171 -156 0
-244 -154 0
-245 -155 0
-246 -156 0
-292 -154 0
-293 -155 0
-294 -156 0
-283 -157 0
-284 -158 0
-285 -159 0
-295 -157 0
-296 -158 0
-297 -159 0
-262 -160 0
-263 -161 0
-264 -162 0
-319 -160 0
-320 -161 0
-321 -162 0
-400 -160 0
-401 -161 0
-402 -162 0
-205 -163 0
-206 -164 0
-207 -165 0
-295 -163 0
-296 -164 0
-297 -165 0
-226 -166 0
-227 -167 0
-228 -168 0
-304 -166 0
-305 -167 0
-306 -168 0
-379 -166 0
-380 -167 0
-381 -168 0
-415 -166 0
-416 -167 0
-417 -168 0
-430 -166 0
-431 -167 0
-432 -168 0
-196 -169 0
-197 -170 0
-198 -171 0
-301 -169 0
-302 -170 0
-303 -171 0
-403 -169 0
-404 -170 0
-405 -171 0
-175 -172 0
-176 -173 0
-177 -174 0
-271 -172 0
-272 -173 0
-273 -174 0
-280 -172 0
-281 -173 0
-282 -174 0
-400 -172 0
-401 -173 0
-402 -174 0
-424 -172 0
-425 -173 0
-426 -174 0
-181 -175 0
-182 -176 0
-183 -177 0
-262 -175 0
-263 -176 0
-264 -177 0
-316 -175 0
-317 -176 0
-318 -177 0
-355 -175 0
-356 -176 0
-357 -177 0
-277 -178 0
-278 -179 0
-279 -180 0
-394 -178 0
-395 -179 0
-396 -180 0
-406 -178 0
-407 -179 0
-408 -180 0
-247 -181 0
-248 -182 0
-249 -183 0
-259 -181 0
-260 -182 0
-261 -183 0
-430 -184 0
-431 -185 0
-432 -186 0
-211 -187 0
-212 -188 0
-213 -189 0
-301 -187 0
-302 -188 0
-303 -189 0
-448 -187 0
-449 -188 0
-450 -189 0
-268 -190 0
-269 -191 0
-270 -192 0
-370 -190 0
-371 -191 0
-372 -192 0
-400 -190 0
-401 -191 0
-402 -192 0
-307 -193 0
-308 -194 0
-309 -195 0
-337 -193 0
-338 -194 0
-339 -195 0
-244 -196 0
-245 -197 0
-246 -198 0
-250 -196 0
-251 -197 0
-252 -198 0
-316 -199 0
-317 -200 0
-318 -201 0
-406 -199 0
-407 -200 0
-408 -201 0
-247 -202 0
-248 -203 0
-249 -204 0
-256 -202 0
-257 -203 0
-258 -204 0
-271 -202 0
-272 -203 0
-273 -204 0
-346 -202 0
-347 -203 0
-348 -204 0
-403 -202 0
-404 -203 0
-405 -204 0
-367 -205 0
-368 -206 0
-369 -207 0
-301 -208 0
-302 -209 0
-303 -210 0
-361 -208 0
-362 -209 0
-363 -210 0
-370 -208 0
-371 -209 0
-372 -210 0
-448 -208 0
-449 -209 0
-450 -210 0
-289 -211 0
-290 -212 0
-291 -213 0
-361 -211 0
-362 -212 0
-363 -213 0
-385 -211 0
-386 -212 0
-387 -213 0
-238 -217 0
-239 -218 0
-240 -219 0
-256 -217 0
-257 -218 0
-258 -219 0
-361 -217 0
-362 -218 0
-363 -219 0
-298 -220 0
-299 -221 0
-300 -222 0
-343 -220 0
-344 -221 0
-345 -222 0
-406 -220 0
-407 -221 0
-408 -222 0
-352 -223 0
-353 -224 0
-354 -225 0
-355 -223 0
-356 -224 0
-357 -225 0
-232 -226 0
-233 -227 0
-234 -228 0
-235 -226 0
-236 -227 0
-237 -228 0
-337 -226 0
-338 -227 0
-339 -228 0
-265 -232 0
-266 -233 0
-267 -234 0
-292 -232 0
-293 -233 0
-294 -234 0
-253 -235 0
-254 -236 0
-255 -237 0
-439 -235 0
-440 -236 0
-441 -237 0
-358 -238 0
-359 -239 0
-360 -240 0
-361 -238 0
-362 -239 0
-363 -240 0
-445 -238 0
-446 -239 0
-447 -240 0
-301 -241 0
-302 -242 0
-303 -243 0
-340 -241 0
-341 -242 0
-342 -243 0
-382 -244 0
-383 -245 0
-384 -246 0
-424 -244 0
-425 -245 0
-426 -246 0
-334 -247 0
-335 -248 0
-336 -249 0
-415 -250 0
-416 -251 0
-417 -252 0
-256 -253 0
-257 -254 0
-258 -255 0
-307 -253 0
-308 -254 0
-309 -255 0
-319 -253 0
-320 -254 0
-321 -255 0
-343 -253 0
-344 -254 0
-345 -255 0
-286 -256 0
-287 -257 0
-288 -258 0
-418 -256 0
-419 -257 0
-420 -258 0
-442 -256 0
-443 -257 0
-444 -258 0
-337 -259 0
-338 -260 0
-339 -261 0
-352 -259 0
-353 -260 0
-354 -261 0
-382 -259 0
-383 -260 0
-384 -261 0
-424 -259 0
-425 -260 0
-426 -261 0
-274 -262 0
-275 -263 0
-276 -264 0
-289 -262 0
-290 -263 0
-291 -264 0
-382 -262 0
-383 -263 0
-384 -264 0
-322 -265 0
-323 -266 0
-324 -267 0
-364 -265 0
-365 -266 0
-366 -267 0
-280 -274 0
-281 -275 0
-282 -276 0
-283 -274 0
-284 -275 0
-285 -276 0
-292 -274 0
-293 -275 0
-294 -276 0
-358 -274 0
-359 -275 0
-360 -276 0
-307 -277 0
-308 -278 0
-309 -279 0
-373 -277 0
-374 -278 0
-375 -279 0
-427 -277 0
-428 -278 0
-429 -279 0
-307 -283 0
-308 -284 0
-309 -285 0
-388 -286 0
-389 -287 0
-390 -288 0
-433 -286 0
-434 -287 0
-435 -288 0
-394 -289 0
-395 -290 0
-396 -291 0
-421 -289 0
-422 -290 0
-423 -291 0
-415 -295 0
-416 -296 0
-417 -297 0
-424 -295 0
-425 -296 0
-426 -297 0
-436 -295 0
-437 -296 0
-438 -297 0
-328 -298 0
-329 -299 0
-330 -300 0
-448 -298 0
-449 -299 0
-450 -300 0
-325 -301 0
-326 -302 0
-327 -303 0
-346 -301 0
-347 -302 0
-348 -303 0
-412 -301 0
-413 -302 0
-414 -303 0
-325 -304 0
-326 -305 0
-327 -306 0
-373 -304 0
-374 -305 0
-375 -306 0
-418 -304 0
-419 -305 0
-420 -306 0
-388 -313 0
-389 -314 0
-390 -315 0
-343 -316 0
-344 -317 0
-345 -318 0
-409 -316 0
-410 -317 0
-411 -318 0
-331 -319 0
-332 -320 0
-333 -321 0
-418 -319 0
-419 -320 0
-420 -321 0
-391 -322 0
-392 -323 0
-393 -324 0
-406 -322 0
-407 -323 0
-408 -324 0
-367 -325 0
-368 -326 0
-369 -327 0
-382 -325 0
-383 -326 0
-384 -327 0
-352 -328 0
-353 -329 0
-354 -330 0
-373 -328 0
-374 -329 0
-375 -330 0
-406 -328 0
-407 -329 0
-408 -330 0
-343 -334 0
-344 -335 0
-345 -336 0
-376 -337 0
-377 -338 0
-378 -339 0
-382 -337 0
-383 -338 0
-384 -339 0
-403 -337 0
-404 -338 0
-405 -339 0
-376 -340 0
-377 -341 0
-378 -342 0
-409 -343 0
-410 -344 0
-411 -345 0
-442 -343 0
-443 -344 0
-444 -345 0
-442 -349 0
-443 -350 0
-444 -351 0
-415 -352 0
-416 -353 0
-417 -354 0
-418 -352 0
-419 -353 0
-420 -354 0
-370 -355 0
-371 -356 0
-372 -357 0
-400 -355 0
-401 -356 0
-402 -357 0
-403 -355 0
-404 -356 0
-405 -357 0
-400 -361 0
-401 -362 0
-402 -363 0
-367 -364 0
-368 -365 0
-369 -366 0
-412 -364 0
-413 -365 0
-414 -366 0
-391 -370 0
-392 -371 0
-393 -372 0
-391 -373 0
-392 -374 0
-393 -375 0
-430 -373 0
-431 -374 0
-432 -375 0
-448 -373 0
-449 -374 0
-450 -375 0
-400 -382 0
-401 -383 0
-402 -384 0
-427 -382 0
-428 -383 0
-429 -384 0
-391 -388 0
-392 -389 0
-393 -390 0
-436 -391 0
-437 -392 0
-438 -393 0
-409 -394 0
-410 -395 0
-411 -396 0
-433 -406 0
-434 -407 0
-435 -408 0
-436 -412 0
-437 -413 0
-438 -414 0
-421 -415 0
-422 -416 0
-423 -417 0
-436 -415 0
-437 -416 0
-438 -417 0
-448 -439 0
-449 -440 0
-450 -441 0
